w = 15;
n = 25;
measures = [|5, 13,
|4, 13,
|4, 12,
|4, 11,
|3, 13,
|3, 11,
|3, 11,
|3, 9,
|2, 13,
|4, 6,
|2, 12,
|2, 11,
|2, 11,
|3, 7,
|4, 5,
|2, 9,
|5, 3,
|5, 3,
|2, 7,
|2, 6,
|2, 5,
|3, 2,
|2, 2,
|4, 1,
|2, 1,
|];
initial_x = [0, 5, 9, 0, 4, 7, 10, 0, 3, 5, 9, 11, 13, 0, 3, 7, 9, 0, 5, 7, 9, 11, 0, 2, 6];
initial_y = [0, 0, 0, 13, 13, 13, 13, 26, 26, 26, 26, 26, 26, 39, 39, 39, 39, 48, 48, 48, 48, 48, 55, 55, 55];